TYPE : Vertex Cover
DIMENSION: 29
EDGE_DATA_SECTION:
0 2
0 6
0 11
0 18
0 19
0 21
0 27
1 7
1 9
1 13
1 14
1 15
1 19
1 20
1 25
2 13
2 15
2 17
2 20
2 21
2 22
2 23
2 24
3 6
3 9
3 10
3 14
3 15
3 18
3 19
3 28
4 9
4 10
4 13
4 19
5 8
5 12
5 14
5 16
5 17
5 18
5 22
6 8
6 10
6 12
6 13
6 15
6 22
6 28
7 8
7 11
7 16
7 19
8 9
8 11
8 13
8 19
8 24
8 25
8 28
9 21
9 23
10 17
10 19
10 25
11 17
11 20
11 21
11 25
12 13
12 16
12 21
12 24
12 26
12 27
12 28
13 14
13 19
13 21
13 27
13 28
14 17
14 19
14 20
14 23
14 24
14 25
14 27
14 28
15 22
15 25
15 26
15 27
16 19
16 20
16 27
17 20
17 22
18 19
18 22
18 28
19 27
19 28
20 21
20 22
21 26
22 25
23 24
23 26
23 28
24 25
24 28
27 28
-1
VERTEX_DEGREE:
7.0 8.0 9.0 8.0 4.0 7.0 9.0 5.0 10.0 6.0 6.0 7.0 9.0 11.0 12.0 8.0 6.0 7.0 6.0 13.0 8.0 8.0 8.0 6.0 7.0 8.0 4.0 8.0 11.0
VERTEX_COVER:
0 1 2 3 5 8 9 10 11 12 13 14 15 16 19 20 22 24 26 28
EOF
